(set-info :origin "benchmarks generated by liquid types http://goto.ucsd.edu/~rjhala/liquid/")
(set-logic HORN)
(declare-fun k_16
             (Int
              Int
              Int
              Int
              Int
              Int
              Int
              (Array Int Int)
              (Array Int Int)
              (Array Int Int)
              (Array Int Int))
             Bool)
(declare-fun k_19
             (Int
              Int
              Int
              Int
              Int
              Int
              Int
              Int
              (Array Int Int)
              (Array Int Int)
              (Array Int Int)
              (Array Int Int))
             Bool)
(declare-fun k_18
             (Int
              Int
              Int
              Int
              Int
              Int
              Int
              Int
              (Array Int Int)
              (Array Int Int)
              (Array Int Int)
              (Array Int Int))
             Bool)
(assert (forall ((__cil_tmp6_main Int)
         (C22_Ix_0 Int)
         (VV Int)
         (lqn_1 Int)
         (s_main Int)
         (EREAD Int)
         (tmp___0_main__SSA__phi_4 Int)
         (__cil_tmp13_main Int)
         (__cil_tmp11_main Int)
         (tmp___1_main Int)
         (s_main__SSA__phi_4 Int)
         (__cil_tmp7_main Int)
         (tmp___1_main__SSA__blk_0_1 Int)
         (__cil_tmp8_main Int)
         (__cil_tmp12_main Int)
         (__cil_tmp10_main Int)
         (tmp___0_main Int)
         (FINAL0 Int)
         (EWRITE Int)
         (__cil_tmp9_main Int)
         (BLOCK_BEGIN (Array Int Int))
         (UNCHECKED (Array Int Int))
         (BLOCK_END (Array Int Int))
         (DEREF (Array Int Int)))
  (let ((a!1 (= FINAL0
                (select DEREF (+ (select BLOCK_BEGIN s_main__SSA__phi_4) 0)))))
  (let ((a!2 (and (= tmp___1_main tmp___1_main)
                  (= tmp___0_main tmp___0_main)
                  (= s_main s_main)
                  (= VV VV)
                  (= EWRITE EWRITE)
                  (= EREAD EREAD)
                  (= C22_Ix_0 C22_Ix_0)
                  (= VV C22_Ix_0)
                  (not (not (= __cil_tmp9_main 0)))
                  (= __cil_tmp9_main
                     (ite (= __cil_tmp8_main __cil_tmp7_main) 1 0))
                  (= __cil_tmp8_main s_main__SSA__phi_4)
                  (= __cil_tmp7_main __cil_tmp6_main)
                  (= __cil_tmp6_main 0)
                  (= __cil_tmp13_main __cil_tmp11_main)
                  (= __cil_tmp12_main __cil_tmp11_main)
                  (<= __cil_tmp10_main __cil_tmp11_main)
                  (= __cil_tmp11_main (+ __cil_tmp10_main 4))
                  (= (select UNCHECKED __cil_tmp11_main)
                     (select UNCHECKED __cil_tmp10_main))
                  (= (select BLOCK_BEGIN __cil_tmp11_main)
                     (select BLOCK_BEGIN __cil_tmp10_main))
                  (= (select BLOCK_END __cil_tmp11_main)
                     (select BLOCK_END __cil_tmp10_main))
                  (= __cil_tmp10_main s_main__SSA__phi_4)
                  a!1
                  (= FINAL0 0)
                  (= C22_Ix_0 FINAL0)
                  (k_19 EREAD
                        EWRITE
                        tmp___0_main__SSA__phi_4
                        s_main
                        s_main__SSA__phi_4
                        tmp___0_main
                        tmp___1_main
                        tmp___1_main__SSA__blk_0_1
                        BLOCK_BEGIN
                        UNCHECKED
                        BLOCK_END
                        DEREF)
                  (k_18 EREAD
                        EWRITE
                        s_main__SSA__phi_4
                        s_main
                        s_main__SSA__phi_4
                        tmp___0_main
                        tmp___1_main
                        tmp___1_main__SSA__blk_0_1
                        BLOCK_BEGIN
                        UNCHECKED
                        BLOCK_END
                        DEREF)
                  (k_16 lqn_1
                        EREAD
                        EWRITE
                        lqn_1
                        s_main
                        tmp___0_main
                        tmp___1_main
                        BLOCK_BEGIN
                        UNCHECKED
                        BLOCK_END
                        DEREF)
                  true)))
    (=> a!2
        (k_16 C22_Ix_0
              EREAD
              EWRITE
              VV
              s_main
              tmp___0_main
              tmp___1_main
              BLOCK_BEGIN
              UNCHECKED
              BLOCK_END
              DEREF))))))
(assert (forall ((tmp___0_main__SSA__blk_2_1 Int)
         (s_main__SSA__blk_2_1 Int)
         (VV Int)
         (s_main Int)
         (tmp___1_main__SSA__blk_0_1 Int)
         (EREAD Int)
         (tmp___1_main Int)
         (lqn_0 Int)
         (tmp___0_main Int)
         (EWRITE Int)
         (__cil_tmp5_main Int)
         (BLOCK_BEGIN (Array Int Int))
         (UNCHECKED (Array Int Int))
         (BLOCK_END (Array Int Int))
         (DEREF (Array Int Int)))
  (=> (and (= tmp___1_main__SSA__blk_0_1 tmp___1_main__SSA__blk_0_1)
           (= tmp___1_main tmp___1_main)
           (= tmp___0_main tmp___0_main)
           (= s_main__SSA__blk_2_1 s_main__SSA__blk_2_1)
           (= s_main s_main)
           (= VV VV)
           (= EWRITE EWRITE)
           (= EREAD EREAD)
           (= VV s_main__SSA__blk_2_1)
           (not (= tmp___1_main__SSA__blk_0_1 0))
           (= (+ tmp___0_main__SSA__blk_2_1 __cil_tmp5_main)
              (select BLOCK_END tmp___0_main__SSA__blk_2_1))
           (> tmp___0_main__SSA__blk_2_1 0)
           (= tmp___0_main__SSA__blk_2_1
              (select BLOCK_BEGIN tmp___0_main__SSA__blk_2_1))
           (= s_main__SSA__blk_2_1 tmp___0_main__SSA__blk_2_1)
           (= lqn_0 0)
           (= __cil_tmp5_main 8)
           true)
      (k_18 EREAD
            EWRITE
            VV
            s_main
            s_main__SSA__blk_2_1
            tmp___0_main
            tmp___1_main
            tmp___1_main__SSA__blk_0_1
            BLOCK_BEGIN
            UNCHECKED
            BLOCK_END
            DEREF))))
(assert (forall ((tmp___0_main__SSA__blk_2_1 Int)
         (s_main__SSA__blk_2_1 Int)
         (VV Int)
         (s_main Int)
         (tmp___1_main__SSA__blk_0_1 Int)
         (EREAD Int)
         (tmp___1_main Int)
         (lqn_0 Int)
         (tmp___0_main Int)
         (EWRITE Int)
         (__cil_tmp5_main Int)
         (BLOCK_BEGIN (Array Int Int))
         (UNCHECKED (Array Int Int))
         (BLOCK_END (Array Int Int))
         (DEREF (Array Int Int)))
  (=> (and (= tmp___1_main__SSA__blk_0_1 tmp___1_main__SSA__blk_0_1)
           (= tmp___1_main tmp___1_main)
           (= tmp___0_main tmp___0_main)
           (= s_main__SSA__blk_2_1 s_main__SSA__blk_2_1)
           (= s_main s_main)
           (= VV VV)
           (= EWRITE EWRITE)
           (= EREAD EREAD)
           (= VV tmp___0_main__SSA__blk_2_1)
           (not (= tmp___1_main__SSA__blk_0_1 0))
           (= (+ tmp___0_main__SSA__blk_2_1 __cil_tmp5_main)
              (select BLOCK_END tmp___0_main__SSA__blk_2_1))
           (> tmp___0_main__SSA__blk_2_1 0)
           (= tmp___0_main__SSA__blk_2_1
              (select BLOCK_BEGIN tmp___0_main__SSA__blk_2_1))
           (= s_main__SSA__blk_2_1 tmp___0_main__SSA__blk_2_1)
           (= lqn_0 0)
           (= __cil_tmp5_main 8)
           true)
      (k_19 EREAD
            EWRITE
            VV
            s_main
            s_main__SSA__blk_2_1
            tmp___0_main
            tmp___1_main
            tmp___1_main__SSA__blk_0_1
            BLOCK_BEGIN
            UNCHECKED
            BLOCK_END
            DEREF))))
(assert (forall ((tmp___0_main__SSA__blk_2_1 Int)
         (s_main__SSA__blk_2_1 Int)
         (VV Int)
         (s_main Int)
         (EREAD Int)
         (tmp___1_main Int)
         (lqn_0 Int)
         (tmp___1_main__SSA__blk_0_1 Int)
         (C20_Ix_0 Int)
         (tmp___0_main Int)
         (EWRITE Int)
         (__cil_tmp5_main Int)
         (BLOCK_BEGIN (Array Int Int))
         (UNCHECKED (Array Int Int))
         (BLOCK_END (Array Int Int))
         (DEREF (Array Int Int)))
  (=> (and (= tmp___1_main tmp___1_main)
           (= tmp___0_main tmp___0_main)
           (= s_main s_main)
           (= VV VV)
           (= EWRITE EWRITE)
           (= EREAD EREAD)
           (= C20_Ix_0 C20_Ix_0)
           (= VV C20_Ix_0)
           (not (= tmp___1_main__SSA__blk_0_1 0))
           (= (+ tmp___0_main__SSA__blk_2_1 __cil_tmp5_main)
              (select BLOCK_END tmp___0_main__SSA__blk_2_1))
           (> tmp___0_main__SSA__blk_2_1 0)
           (= tmp___0_main__SSA__blk_2_1
              (select BLOCK_BEGIN tmp___0_main__SSA__blk_2_1))
           (= s_main__SSA__blk_2_1 tmp___0_main__SSA__blk_2_1)
           (= lqn_0 0)
           (= __cil_tmp5_main 8)
           (= C20_Ix_0 lqn_0)
           true)
      (k_16 C20_Ix_0
            EREAD
            EWRITE
            VV
            s_main
            tmp___0_main
            tmp___1_main
            BLOCK_BEGIN
            UNCHECKED
            BLOCK_END
            DEREF))))
(assert (forall ((VV Int)
         (s_main Int)
         (tmp___1_main__SSA__blk_0_1 Int)
         (EREAD Int)
         (tmp___1_main Int)
         (s_main__SSA__blk_3_1 Int)
         (tmp___0_main Int)
         (EWRITE Int)
         (BLOCK_BEGIN (Array Int Int))
         (UNCHECKED (Array Int Int))
         (BLOCK_END (Array Int Int))
         (DEREF (Array Int Int)))
  (let ((a!1 (and (= tmp___1_main__SSA__blk_0_1 tmp___1_main__SSA__blk_0_1)
                  (= tmp___1_main tmp___1_main)
                  (= tmp___0_main tmp___0_main)
                  (= s_main__SSA__blk_3_1 s_main__SSA__blk_3_1)
                  (= s_main s_main)
                  (= VV VV)
                  (= EWRITE EWRITE)
                  (= EREAD EREAD)
                  (= VV s_main__SSA__blk_3_1)
                  (not (not (= tmp___1_main__SSA__blk_0_1 0)))
                  (= s_main__SSA__blk_3_1 0)
                  true)))
    (=> a!1
        (k_18 EREAD
              EWRITE
              VV
              s_main
              s_main__SSA__blk_3_1
              tmp___0_main
              tmp___1_main
              tmp___1_main__SSA__blk_0_1
              BLOCK_BEGIN
              UNCHECKED
              BLOCK_END
              DEREF)))))
(assert (forall ((VV Int)
         (s_main Int)
         (tmp___1_main__SSA__blk_0_1 Int)
         (EREAD Int)
         (tmp___1_main Int)
         (s_main__SSA__blk_3_1 Int)
         (tmp___0_main Int)
         (EWRITE Int)
         (BLOCK_BEGIN (Array Int Int))
         (UNCHECKED (Array Int Int))
         (BLOCK_END (Array Int Int))
         (DEREF (Array Int Int)))
  (let ((a!1 (and (= tmp___1_main__SSA__blk_0_1 tmp___1_main__SSA__blk_0_1)
                  (= tmp___1_main tmp___1_main)
                  (= tmp___0_main tmp___0_main)
                  (= s_main__SSA__blk_3_1 s_main__SSA__blk_3_1)
                  (= s_main s_main)
                  (= VV VV)
                  (= EWRITE EWRITE)
                  (= EREAD EREAD)
                  (not (not (= tmp___1_main__SSA__blk_0_1 0)))
                  (= s_main__SSA__blk_3_1 0)
                  true)))
    (=> a!1
        (k_19 EREAD
              EWRITE
              VV
              s_main
              s_main__SSA__blk_3_1
              tmp___0_main
              tmp___1_main
              tmp___1_main__SSA__blk_0_1
              BLOCK_BEGIN
              UNCHECKED
              BLOCK_END
              DEREF)))))
(assert (forall ((__cil_tmp6_main Int)
         (VV Int)
         (s_main Int)
         (EREAD Int)
         (tmp___1_main Int)
         (s_main__SSA__phi_4 Int)
         (__cil_tmp7_main Int)
         (tmp___1_main__SSA__blk_0_1 Int)
         (tmp___0_main__SSA__phi_4 Int)
         (tmp___0_main Int)
         (__cil_tmp9_main Int)
         (EWRITE Int)
         (__cil_tmp8_main Int)
         (BLOCK_BEGIN (Array Int Int))
         (UNCHECKED (Array Int Int))
         (BLOCK_END (Array Int Int))
         (DEREF (Array Int Int)))
  (let ((a!1 (or (= (select UNCHECKED VV) 1)
                 (and (<= (select BLOCK_BEGIN VV) VV)
                      (< VV (select BLOCK_END VV))
                      true)
                 false)))
  (let ((a!2 (and (not a!1)
                  (k_18 EREAD
                        EWRITE
                        s_main__SSA__phi_4
                        s_main
                        s_main__SSA__phi_4
                        tmp___0_main
                        tmp___1_main
                        tmp___1_main__SSA__blk_0_1
                        BLOCK_BEGIN
                        UNCHECKED
                        BLOCK_END
                        DEREF)
                  (k_19 EREAD
                        EWRITE
                        tmp___0_main__SSA__phi_4
                        s_main
                        s_main__SSA__phi_4
                        tmp___0_main
                        tmp___1_main
                        tmp___1_main__SSA__blk_0_1
                        BLOCK_BEGIN
                        UNCHECKED
                        BLOCK_END
                        DEREF)
                  (= __cil_tmp6_main 0)
                  (= __cil_tmp7_main __cil_tmp6_main)
                  (= __cil_tmp8_main s_main__SSA__phi_4)
                  (= __cil_tmp9_main
                     (ite (= __cil_tmp8_main __cil_tmp7_main) 1 0))
                  (not (not (= __cil_tmp9_main 0)))
                  (< VV (+ s_main__SSA__phi_4 8))
                  (<= s_main__SSA__phi_4 VV)
                  (= (select UNCHECKED VV)
                     (select UNCHECKED s_main__SSA__phi_4))
                  (= (select BLOCK_END VV)
                     (select BLOCK_END s_main__SSA__phi_4))
                  (= (select BLOCK_BEGIN VV)
                     (select BLOCK_BEGIN s_main__SSA__phi_4))
                  true)))
    (=> a!2 false)))))
(assert (forall ((__cil_tmp6_main Int)
         (s_main Int)
         (EREAD Int)
         (tmp___1_main Int)
         (s_main__SSA__phi_4 Int)
         (__cil_tmp7_main Int)
         (tmp___1_main__SSA__blk_0_1 Int)
         (tmp___0_main__SSA__phi_4 Int)
         (lqn_1 Int)
         (tmp___0_main Int)
         (FINAL0 Int)
         (__cil_tmp8_main Int)
         (__cil_tmp9_main Int)
         (EWRITE Int)
         (__cil_tmp10_main Int)
         (BLOCK_BEGIN (Array Int Int))
         (UNCHECKED (Array Int Int))
         (BLOCK_END (Array Int Int))
         (DEREF (Array Int Int)))
  (let ((a!1 (= FINAL0
                (select DEREF (+ (select BLOCK_BEGIN s_main__SSA__phi_4) 0)))))
  (let ((a!2 (and (not (<= 0 4))
                  (k_16 lqn_1
                        EREAD
                        EWRITE
                        lqn_1
                        s_main
                        tmp___0_main
                        tmp___1_main
                        BLOCK_BEGIN
                        UNCHECKED
                        BLOCK_END
                        DEREF)
                  (k_18 EREAD
                        EWRITE
                        s_main__SSA__phi_4
                        s_main
                        s_main__SSA__phi_4
                        tmp___0_main
                        tmp___1_main
                        tmp___1_main__SSA__blk_0_1
                        BLOCK_BEGIN
                        UNCHECKED
                        BLOCK_END
                        DEREF)
                  (k_19 EREAD
                        EWRITE
                        tmp___0_main__SSA__phi_4
                        s_main
                        s_main__SSA__phi_4
                        tmp___0_main
                        tmp___1_main
                        tmp___1_main__SSA__blk_0_1
                        BLOCK_BEGIN
                        UNCHECKED
                        BLOCK_END
                        DEREF)
                  (= FINAL0 0)
                  a!1
                  (= __cil_tmp10_main s_main__SSA__phi_4)
                  (= __cil_tmp6_main 0)
                  (= __cil_tmp7_main __cil_tmp6_main)
                  (= __cil_tmp8_main s_main__SSA__phi_4)
                  (= __cil_tmp9_main
                     (ite (= __cil_tmp8_main __cil_tmp7_main) 1 0))
                  (not (not (= __cil_tmp9_main 0)))
                  true)))
    (=> a!2 false)))))
(assert (forall ((__cil_tmp6_main Int)
         (VV Int)
         (s_main Int)
         (EREAD Int)
         (__cil_tmp13_main Int)
         (__cil_tmp11_main Int)
         (tmp___1_main Int)
         (s_main__SSA__phi_4 Int)
         (__cil_tmp7_main Int)
         (tmp___1_main__SSA__blk_0_1 Int)
         (tmp___0_main__SSA__phi_4 Int)
         (__cil_tmp12_main Int)
         (lqn_1 Int)
         (tmp___0_main Int)
         (FINAL0 Int)
         (__cil_tmp8_main Int)
         (__cil_tmp9_main Int)
         (EWRITE Int)
         (__cil_tmp10_main Int)
         (BLOCK_BEGIN (Array Int Int))
         (UNCHECKED (Array Int Int))
         (BLOCK_END (Array Int Int))
         (DEREF (Array Int Int)))
  (let ((a!1 (not (and (> VV 0)
                       (<= (select BLOCK_BEGIN VV) VV)
                       (< VV (select BLOCK_END VV))
                       true)))
        (a!2 (= FINAL0
                (select DEREF (+ (select BLOCK_BEGIN s_main__SSA__phi_4) 0)))))
  (let ((a!3 (and a!1
                  (k_16 lqn_1
                        EREAD
                        EWRITE
                        lqn_1
                        s_main
                        tmp___0_main
                        tmp___1_main
                        BLOCK_BEGIN
                        UNCHECKED
                        BLOCK_END
                        DEREF)
                  (k_18 EREAD
                        EWRITE
                        s_main__SSA__phi_4
                        s_main
                        s_main__SSA__phi_4
                        tmp___0_main
                        tmp___1_main
                        tmp___1_main__SSA__blk_0_1
                        BLOCK_BEGIN
                        UNCHECKED
                        BLOCK_END
                        DEREF)
                  (k_19 EREAD
                        EWRITE
                        tmp___0_main__SSA__phi_4
                        s_main
                        s_main__SSA__phi_4
                        tmp___0_main
                        tmp___1_main
                        tmp___1_main__SSA__blk_0_1
                        BLOCK_BEGIN
                        UNCHECKED
                        BLOCK_END
                        DEREF)
                  (= FINAL0 0)
                  a!2
                  (= __cil_tmp10_main s_main__SSA__phi_4)
                  (= (select BLOCK_END __cil_tmp11_main)
                     (select BLOCK_END __cil_tmp10_main))
                  (= (select BLOCK_BEGIN __cil_tmp11_main)
                     (select BLOCK_BEGIN __cil_tmp10_main))
                  (= (select UNCHECKED __cil_tmp11_main)
                     (select UNCHECKED __cil_tmp10_main))
                  (= __cil_tmp11_main (+ __cil_tmp10_main 4))
                  (<= __cil_tmp10_main __cil_tmp11_main)
                  (= __cil_tmp12_main __cil_tmp11_main)
                  (= __cil_tmp13_main __cil_tmp11_main)
                  (= __cil_tmp6_main 0)
                  (= __cil_tmp7_main __cil_tmp6_main)
                  (= __cil_tmp8_main s_main__SSA__phi_4)
                  (= __cil_tmp9_main
                     (ite (= __cil_tmp8_main __cil_tmp7_main) 1 0))
                  (not (not (= __cil_tmp9_main 0)))
                  (= VV __cil_tmp13_main)
                  true)))
    (=> a!3 false)))))
(assert (forall ((VV Int)
         (__cil_tmp5_main Int)
         (tmp___1_main__SSA__blk_0_1 Int)
         (BLOCK_BEGIN (Array Int Int))
         (UNCHECKED (Array Int Int))
         (BLOCK_END (Array Int Int))
         (DEREF (Array Int Int)))
  (=> (and (not (>= VV 0))
           (= __cil_tmp5_main 8)
           (not (= tmp___1_main__SSA__blk_0_1 0))
           (= VV __cil_tmp5_main)
           true)
      false)))
(assert (forall ((VV Int)
         (s_main Int)
         (EREAD Int)
         (tmp___1_main Int)
         (tmp___0_main Int)
         (EWRITE Int)
         (A19_Ix_0 Int)
         (BLOCK_BEGIN (Array Int Int))
         (UNCHECKED (Array Int Int))
         (BLOCK_END (Array Int Int))
         (DEREF (Array Int Int)))
  (=> (and (= tmp___1_main tmp___1_main)
           (= tmp___0_main tmp___0_main)
           (= s_main s_main)
           (= VV VV)
           (= EWRITE EWRITE)
           (= EREAD EREAD)
           (= A19_Ix_0 A19_Ix_0)
           (= VV A19_Ix_0)
           false
           true)
      (k_16 A19_Ix_0
            EREAD
            EWRITE
            VV
            s_main
            tmp___0_main
            tmp___1_main
            BLOCK_BEGIN
            UNCHECKED
            BLOCK_END
            DEREF))))

(check-sat)
